! UKS B3LYP def2-SV(P) def2/J D3BJ Opt
%scf Convergence VeryTight
SmearTemp 2000
maxiter 500
end
*xyz 0 1
C 3.046219 0.341643 0.183432
C 1.808793 -0.531473 0.357131
C 0.658509 0.253477 -0.201923
C -0.617187 -0.532298 -0.314275
C -1.748471 0.444904 -0.045016
C -3.104683 -0.192114 -0.1283
H 3.071917 0.61137 -0.896034
H 3.970591 -0.161638 0.491713
H 2.830419 1.2797 0.723643
H 1.955535 -1.494832 -0.151094
H 1.659878 -0.663933 1.452592
H 0.948173 0.611384 -1.218788
H 0.523924 1.141014 0.463567
H -0.656895 -1.423752 0.32705
H -0.724396 -0.881988 -1.372653
H -1.566004 0.862212 0.974909
H -1.652011 1.23799 -0.82135
H -3.120425 -1.242335 0.204646
H -3.794451 0.438835 0.488613
H -3.489434 -0.098168 -1.16877
*
