! UKS B3LYP def2-SV(P) def2/J D3BJ Opt
%scf Convergence VeryTight
SmearTemp 2000
maxiter 500
end
*xyz 0 1
C -3.802273 1.33239 0.156888
C -4.048994 -0.089034 -0.262073
C -3.12148 -1.075268 0.395266
C -1.877851 -1.350586 -0.40877
C -0.880539 -0.265247 -0.069112
C 0.539426 -0.817957 -0.105728
C 1.430128 0.207403 0.551661
C 2.568737 0.625298 -0.337728
C 3.81404 -0.105186 0.08028
C 5.03628 0.766929 -0.172622
H -4.703484 1.798514 0.629877
H -3.590392 1.958984 -0.743724
H -2.983107 1.447649 0.880566
H -5.084123 -0.353825 0.072337
H -4.020887 -0.164543 -1.374999
H -2.773335 -0.692635 1.388146
H -3.673267 -2.020749 0.627173
H -1.484304 -2.358104 -0.12954
H -2.071519 -1.401763 -1.502193
H -1.04888 0.026938 0.998403
H -1.022067 0.586393 -0.747264
H 0.517628 -1.735392 0.534811
H 0.817768 -1.024276 -1.148993
H 1.845153 -0.15931 1.524559
H 0.874265 1.142717 0.815234
H 2.373489 0.402671 -1.413262
H 2.7816 1.715164 -0.298394
H 3.784317 -0.314246 1.168944
H 3.911876 -1.05914 -0.481499
H 5.03746 1.102078 -1.225193
H 4.896022 1.669887 0.472599
H 5.958313 0.204244 0.08053
*
