! UKS B3LYP def2-SV(P) def2/J D3BJ Opt
%scf Convergence VeryTight
SmearTemp 2000
maxiter 500
end
*xyz 0 2
C -0.078024 0.057177 0.373548
C 1.265433 -0.608904 0.147611
C -1.175437 -0.828589 -0.146067
C -0.094988 1.436795 -0.232256
H -0.249116 0.163443 1.475314
H 1.821705 -0.151474 -0.707389
H 1.106826 -1.685632 -0.082089
H -0.962242 -1.860898 0.229844
H -1.196159 -0.908035 -1.249728
H -2.174879 -0.573486 0.259115
H -0.392092 2.215481 0.515502
H 0.958985 1.702901 -0.50014
H -0.70523 1.500086 -1.15741
*
