! UKS B3LYP def2-SV(P) def2/J D3BJ Opt
%scf Convergence VeryTight
SmearTemp 2000
maxiter 500
end
*xyz 0 2
C 0.065938 -0.016435 -0.305895
C -1.209786 -0.820465 -0.109793
C 1.250622 -0.635312 0.370333
C -0.123539 1.43293 0.046074
H 0.269424 -0.055465 -1.40549
H -1.421246 -1.014355 0.958372
H -1.157502 -1.762487 -0.712309
H 1.417615 -1.64138 -0.061949
H 2.143556 -0.033596 0.06474
H 1.216795 -0.612873 1.467722
H -0.950459 1.821362 -0.575084
H 0.806183 1.962775 -0.282903
H -0.28748 1.591521 1.138588
*
