! UKS B3LYP def2-SV(P) def2/J D3BJ Opt
%scf Convergence VeryTight
SmearTemp 2000
maxiter 500
end
*xyz 0 2
C 0.024603 0.214771 -0.372798
C -1.024911 0.970544 0.382899
C 1.381332 0.232782 0.271012
C -0.37258 -1.246405 -0.453696
H 0.139795 0.657493 -1.39354
H -0.932805 2.062795 0.320312
H -2.012992 0.658537 -0.029407
H 1.743671 1.243255 0.527407
H 2.089131 -0.181837 -0.491799
H 1.45545 -0.419731 1.171073
H -0.035461 -1.721106 -1.394692
H -1.47903 -1.373403 -0.426595
H 0.012885 -1.757647 0.455316
*
