! UKS B3LYP def2-SV(P) def2/J D3BJ Opt
%scf Convergence VeryTight
SmearTemp 2000
maxiter 500
end
*xyz 0 2
C -0.355189 -0.023682 0.026882
O 0.951615 -0.442741 0.163974
H -0.858651 -0.034074 0.999462
H -0.474685 0.978859 -0.403372
H -0.865068 -0.725448 -0.660035
H 1.601978 0.247086 -0.126911
*
