! UKS B3LYP def2-SV(P) def2/J D3BJ Opt
%scf Convergence VeryTight
SmearTemp 2000
maxiter 500
end
*xyz 0 2
C -0.367138 -0.005358 -0.016573
O 0.915485 -0.528671 -0.155042
H -0.5724 0.295169 1.0269
H -0.469216 0.885025 -0.666749
H -1.084216 -0.796699 -0.269947
H 1.577486 0.150534 0.081411
*
