! UKS B3LYP def2-SV(P) def2/J D3BJ Opt
%scf Convergence VeryTight
SmearTemp 2000
maxiter 500
end
*xyz 0 2
C -0.372435 0.010363 -0.006861
O 0.917039 -0.492612 -0.081142
H -0.967981 -0.57055 -0.756911
H -0.422318 1.091225 -0.203922
H -0.776687 -0.209128 0.998776
H 1.622382 0.170702 0.050059
*
