! UKS B3LYP def2-SV(P) def2/J D3BJ Opt
%scf Convergence VeryTight
SmearTemp 2000
maxiter 500
end
*xyz 0 2
C -0.386213 0.012156 -0.00466
O 0.928807 0.377776 -0.29938
H -0.475298 -0.61669 0.897614
H -0.738431 -0.586934 -0.859456
H -0.929863 0.978998 0.111931
H 1.600998 -0.165305 0.153951
*
