! UKS B3LYP def2-SV(P) def2/J D3BJ Opt
%scf Convergence VeryTight
SmearTemp 2000
maxiter 500
end
*xyz 0 2
C -0.375777 0.008275 -0.010796
O 0.922026 -0.459802 0.132168
H -0.826638 -0.025583 1.012902
H -0.887805 -0.751404 -0.654177
H -0.447156 1.023246 -0.425335
H 1.615349 0.205267 -0.054762
*
