! UKS B3LYP def2-SV(P) def2/J D3BJ Opt
%scf Convergence VeryTight
SmearTemp 2000
maxiter 500
end
*xyz 0 2
C -0.382433 0.000434 0.010887
O 0.921432 -0.492685 -0.13979
H -0.595393 -0.035793 1.098334
H -0.512263 1.008594 -0.406201
H -1.012397 -0.714507 -0.573017
H 1.581056 0.233957 0.009787
*
