! UKS B3LYP def2-SV(P) def2/J D3BJ Opt
%scf Convergence VeryTight
SmearTemp 2000
maxiter 500
end
*xyz 0 2
C -0.355665 -0.034454 0.006189
O 0.969539 -0.380694 -0.22266
H -0.565172 0.986208 -0.332314
H -0.951762 -0.748526 -0.604457
H -0.674915 -0.144512 1.047961
H 1.577974 0.321978 0.10528
*
