! UKS B3LYP def2-SV(P) def2/J D3BJ Opt
%scf Convergence VeryTight
SmearTemp 2000
maxiter 500
end
*xyz 0 1
C -3.8053 1.374733 0.308099
C -4.087477 0.048356 -0.334001
C -2.876927 -0.824053 -0.488204
C -1.632852 -0.258142 0.12959
C -0.464677 -1.125876 -0.325246
C 0.620098 -1.187067 0.713534
C 1.635161 -0.080492 0.525963
C 2.563961 -0.391231 -0.616863
C 3.969658 0.122167 -0.341472
C 3.951012 1.466781 0.348404
H -3.715824 2.17217 -0.473089
H -4.713232 1.638559 0.90796
H -2.930599 1.371957 0.981448
H -4.495276 0.236481 -1.349003
H -4.881777 -0.511491 0.212104
H -2.640446 -1.04906 -1.556029
H -3.055597 -1.814394 -0.000165
H -1.408391 0.768358 -0.255616
H -1.76411 -0.27967 1.227673
H -0.818216 -2.139702 -0.644331
H 0.00108 -0.691158 -1.245661
H 1.187088 -2.143533 0.587899
H 0.20436 -1.179662 1.74136
H 2.256458 0.037836 1.429353
H 1.106679 0.8712 0.335389
H 2.212753 0.030063 -1.572098
H 2.673838 -1.486222 -0.774156
H 4.528287 0.242513 -1.295034
H 4.521599 -0.652241 0.244036
H 2.924862 1.855598 0.460674
H 4.418864 1.344451 1.357795
H 4.514942 2.232769 -0.240311
*
