! UKS B3LYP def2-SV(P) def2/J D3BJ Opt
%scf Convergence VeryTight
SmearTemp 2000
maxiter 500
end
*xyz 0 2
C -0.369836 0.002581 0.002796
O 0.897985 -0.574835 -0.119094
H -0.674091 -0.11938 1.05078
H -0.314182 1.066474 -0.315483
H -1.083042 -0.524563 -0.642972
*
