! UKS B3LYP def2-SV(P) def2/J D3BJ Opt
%scf Convergence VeryTight
SmearTemp 2000
maxiter 500
end
*xyz 0 2
C -0.375749 -0.000928 -0.004026
O 0.895479 0.52275 -0.115035
H -0.52825 -0.429413 1.002801
H -0.517725 -0.79198 -0.750919
H -1.080048 0.839622 -0.171831
*
