! UKS B3LYP def2-SV(P) def2/J D3BJ Opt
%scf Convergence VeryTight
SmearTemp 2000
maxiter 500
end
*xyz 0 2
C -0.377102 -0.031431 -0.011337
O 0.958016 -0.321821 -0.335155
H -0.522767 0.053064 1.082002
H -0.621923 0.926529 -0.510577
H -0.94556 -0.886493 -0.459777
*
