! UKS B3LYP def2-SV(P) def2/J D3BJ Opt
%scf Convergence VeryTight
SmearTemp 2000
maxiter 500
end
*xyz 0 1
C 2.373824 -0.333291 0.648418
C 1.540505 -0.351136 -0.622748
C 0.61961 0.833627 -0.716445
C -0.827835 0.442491 -0.857051
C -1.615625 0.580617 0.415286
C -2.1803 -0.782525 0.791075
H 3.328306 -0.878683 0.459355
H 1.878753 -0.849451 1.488313
H 2.628946 0.725924 0.869934
H 2.266412 -0.407077 -1.472195
H 0.950868 -1.300937 -0.671452
H 0.918492 1.398172 -1.636065
H 0.789085 1.523378 0.131153
H -1.312211 1.088021 -1.631362
H -0.856651 -0.589757 -1.276873
H -1.04365 1.029381 1.247559
H -2.508578 1.239611 0.273901
H -3.189924 -0.687097 1.26327
H -2.313356 -1.391091 -0.137076
H -1.446672 -1.290176 1.433001
*
