! UKS B3LYP def2-SV(P) def2/J D3BJ Opt
%scf Convergence VeryTight
SmearTemp 2000
maxiter 500
end
*xyz 0 1
C 4.979583 0.201329 -0.812473
C 4.161316 -0.219287 0.40327
C 2.727402 0.17889 0.186034
C 1.814315 -1.026488 0.000172
C 0.536519 -0.63629 -0.683362
C -0.666502 -0.668745 0.239154
C -1.487598 0.54907 -0.076646
C -2.800774 0.607633 0.640058
C -3.932191 0.010469 -0.190565
C -5.237969 0.439882 0.464872
H 4.633952 -0.313989 -1.724247
H 4.932461 1.313903 -0.900199
H 6.05434 -0.027675 -0.608181
H 4.55204 0.407374 1.244645
H 4.292633 -1.303297 0.597228
H 2.622712 0.813651 -0.729693
H 2.332645 0.812021 1.020066
H 2.354937 -1.712016 -0.700701
H 1.641831 -1.54948 0.974761
H 0.697827 0.383698 -1.11593
H 0.28511 -1.307013 -1.542413
H -0.369781 -0.598979 1.312239
H -1.275217 -1.597476 0.102594
H -0.877017 1.434074 0.228134
H -1.676168 0.529664 -1.173147
H -3.064914 1.691511 0.74001
H -2.787348 0.187966 1.657963
H -3.898522 0.50655 -1.17181
H -3.848289 -1.092804 -0.239204
H -5.580208 -0.299417 1.207745
H -6.031489 0.615927 -0.301615
H -5.085636 1.436507 0.95124
*
