! UKS B3LYP def2-SV(P) def2/J D3BJ Opt 

%scf Convergence VeryTight
SmearTemp 2000 
maxiter 500
end

%geom
Constraints
{B 1 3 C}
{B 3 6 C}
end
end 


*xyz 0 2
C        1.72353039       0.45530656      -2.68761759
O        0.32339977       0.35894107      -2.45287054
H        1.84350258       0.61115969      -3.75925871
H        0.16169989       0.17947053      -1.22643527
H        2.17648253       1.30311689      -2.15952884
H        2.25639935      -0.46133897      -2.40719400
C        0.00000000       0.00000000       0.00000000
C        0.43843644       1.29440395       0.73362715
C       -1.50345037      -0.29111227       0.24682800
C        0.87706100      -1.20698883       0.42343691
H       -0.16592287       2.15907855       0.40841877
H        1.49996844       1.52628438       0.53838113
H        0.30979587       1.18389945       1.82652879
H       -1.69406055      -0.46195175       1.32241694
H       -2.13220263       0.55707233      -0.07633984
H       -1.83316245      -1.18982492      -0.30275602
H        0.77098940      -1.40368452       1.50619761
H        1.94528003      -1.01696845       0.21786460
H        0.58304277      -2.12325807      -0.11704689
*

