! UKS B3LYP def2-SV(P) def2/J D3BJ Opt
%scf Convergence VeryTight
SmearTemp 2000
maxiter 500
end
*xyz 0 1
C 4.522128 -0.74289 0.780796
C 3.742167 0.252526 1.599196
C 2.636207 0.808115 0.747164
C 1.849842 -0.293942 0.052037
C 0.760721 0.366663 -0.780362
C -0.616657 -0.033891 -0.278555
C -1.513613 -0.098999 -1.5056
C -2.82462 0.569958 -1.106365
C -3.441809 -0.360731 -0.077164
C -4.882863 -0.042901 0.202342
H 3.878224 -1.64661 0.694901
H 5.413066 -1.036348 1.356234
H 4.752924 -0.270329 -0.18313
H 4.392165 1.080192 1.920682
H 3.27536 -0.197015 2.504452
H 1.888919 1.337142 1.390378
H 3.02802 1.473762 -0.045359
H 1.428987 -0.968541 0.816097
H 2.529216 -0.852125 -0.614935
H 0.806331 1.480389 -0.678957
H 0.900003 0.157129 -1.855841
H -1.007996 0.682155 0.482803
H -0.543139 -1.012869 0.240379
H -1.730604 -1.169785 -1.739276
H -1.068748 0.400327 -2.380653
H -2.570877 1.559107 -0.699817
H -3.502921 0.639849 -1.979074
H -2.856054 -0.358999 0.856212
H -3.427432 -1.380041 -0.541229
H -5.486157 -0.971417 0.362786
H -5.348603 0.480431 -0.642579
H -4.982186 0.587572 1.102437
*
