! UKS B3LYP def2-SV(P) def2/J D3BJ Opt
%scf Convergence VeryTight
SmearTemp 2000
maxiter 500
end
*xyz 0 2
C -0.013531 0.080692 -0.405817
C 1.100578 -0.893964 -0.035812
C 0.258437 1.320463 0.415014
C -1.378238 -0.501209 -0.149636
H 0.086033 0.318044 -1.495565
H 2.04364 -0.440969 -0.376977
H 0.854804 -1.845263 -0.529144
H -0.618758 1.9544 0.57079
H 1.094952 1.851714 -0.105926
H 0.651839 1.063777 1.425385
H -1.896545 -0.692155 -1.123748
H -1.336756 -1.494497 0.355981
H -2.006439 0.232899 0.388696
*
