! UKS B3LYP def2-SV(P) def2/J D3BJ Opt
%scf Convergence VeryTight
SmearTemp 2000
maxiter 500
end
*xyz 0 2
C 0.089792 -0.07288 0.485406
C 0.198814 1.413693 0.293692
C -1.328367 -0.476455 0.097331
C 1.124415 -0.866223 -0.251913
H 0.273194 -0.252818 1.575996
H -0.178502 1.649701 -0.733245
H -0.557889 1.87288 0.97997
H -1.778577 -0.958997 0.979185
H -1.231066 -1.130487 -0.782196
H -1.949483 0.382719 -0.188123
H 1.681171 -1.580027 0.408605
H 0.583725 -1.523462 -0.980085
H 1.858202 -0.262108 -0.80596
*
